<instance format="XCSP3" type="COP">
  <variables>
    <array id="x" note="x[i] is the value for the ith variable" size="[143]">
      <domain for="x[0..3] x[7..8] x[16..17] x[19] x[34] x[48..52] x[54..56] x[64..65] x[67..70] x[73..76] x[80..81] x[85] x[94] x[96] x[98] x[100..102] x[106..109] x[112..114] x[117..120] x[130..139]"> 0 1 2 3 </domain>
      <domain for="x[4] x[9..15] x[18] x[20..27] x[30..33] x[35..47] x[53] x[57..60] x[66] x[71..72] x[77..79] x[82..84] x[86..93] x[95] x[97] x[99] x[103..105] x[110..111] x[115..116] x[121..129] x[140..142]"> 0 13 </domain>
      <domain for="x[5..6] x[28..29] x[61..63]"> 0 2 </domain>
    </array>
    <array id="y" size="[143]"> 0 1 </array>
  </variables>
  <constraints>
    <block note="binary constraints">
      <group>
        <extension>
          <list> %0 %1 </list>
          <supports> (0,0)(0,1)(0,2)(0,3)(13,0)(13,2) </supports>
        </extension>
        <args> x[105] x[101] </args>
        <args> x[104] x[96] </args>
        <args> x[95] x[94] </args>
        <args> x[105] x[102] </args>
        <args> x[111] x[106] </args>
        <args> x[122] x[112] </args>
        <args> x[111] x[112] </args>
        <args> x[72] x[75] </args>
        <args> x[84] x[85] </args>
        <args> x[116] x[112] </args>
        <args> x[35] x[34] </args>
        <args> x[115] x[113] </args>
        <args> x[82] x[85] </args>
        <args> x[110] x[106] </args>
        <args> x[72] x[74] </args>
        <args> x[99] x[94] </args>
        <args> x[103] x[98] </args>
        <args> x[53] x[50] </args>
        <args> x[4] x[8] </args>
        <args> x[103] x[100] </args>
        <args> x[122] x[113] </args>
        <args> x[77] x[73] </args>
        <args> x[95] x[98] </args>
        <args> x[111] x[113] </args>
        <args> x[116] x[113] </args>
        <args> x[104] x[101] </args>
        <args> x[95] x[100] </args>
        <args> x[53] x[51] </args>
        <args> x[97] x[94] </args>
        <args> x[4] x[3] </args>
        <args> x[36] x[34] </args>
        <args> x[103] x[94] </args>
        <args> x[99] x[98] </args>
        <args> x[59] x[56] </args>
        <args> x[116] x[117] </args>
        <args> x[32] x[34] </args>
        <args> x[111] x[109] </args>
        <args> x[99] x[100] </args>
        <args> x[9] x[7] </args>
        <args> x[30] x[34] </args>
        <args> x[111] x[108] </args>
        <args> x[31] x[34] </args>
        <args> x[110] x[109] </args>
        <args> x[123] x[114] </args>
        <args> x[72] x[73] </args>
        <args> x[53] x[49] </args>
        <args> x[97] x[98] </args>
        <args> x[104] x[94] </args>
        <args> x[105] x[100] </args>
        <args> x[97] x[100] </args>
        <args> x[57] x[56] </args>
        <args> x[122] x[114] </args>
        <args> x[66] x[68] </args>
        <args> x[59] x[55] </args>
        <args> x[123] x[112] </args>
        <args> x[53] x[56] </args>
        <args> x[4] x[7] </args>
        <args> x[99] x[96] </args>
        <args> x[115] x[117] </args>
        <args> x[97] x[101] </args>
        <args> x[87] x[85] </args>
        <args> x[103] x[101] </args>
        <args> x[77] x[76] </args>
        <args> x[103] x[102] </args>
        <args> x[83] x[85] </args>
        <args> x[57] x[52] </args>
        <args> x[104] x[98] </args>
        <args> x[111] x[107] </args>
        <args> x[123] x[113] </args>
        <args> x[47] x[48] </args>
        <args> x[53] x[52] </args>
        <args> x[97] x[96] </args>
        <args> x[57] x[55] </args>
        <args> x[77] x[75] </args>
        <args> x[104] x[100] </args>
        <args> x[53] x[55] </args>
        <args> x[103] x[96] </args>
        <args> x[110] x[107] </args>
        <args> x[33] x[34] </args>
        <args> x[115] x[114] </args>
        <args> x[66] x[69] </args>
        <args> x[58] x[55] </args>
        <args> x[37] x[34] </args>
        <args> x[57] x[54] </args>
        <args> x[95] x[96] </args>
        <args> x[66] x[64] </args>
        <args> x[66] x[67] </args>
        <args> x[77] x[74] </args>
        <args> x[104] x[102] </args>
        <args> x[53] x[54] </args>
        <args> x[110] x[108] </args>
        <args> x[86] x[85] </args>
        <args> x[72] x[76] </args>
        <args> x[115] x[112] </args>
        <args> x[111] x[114] </args>
        <args> x[116] x[114] </args>
        <args> x[9] x[8] </args>
      </group>
      <group>
        <extension>
          <list> %0 %1 </list>
          <supports> (0,0)(0,13)(1,0)(2,0)(2,13)(3,0) </supports>
        </extension>
        <args> x[81] x[78] </args>
        <args> x[80] x[79] </args>
        <args> x[139] x[141] </args>
        <args> x[118] x[116] </args>
        <args> x[16] x[18] </args>
        <args> x[65] x[66] </args>
        <args> x[139] x[140] </args>
        <args> x[56] x[58] </args>
        <args> x[17] x[20] </args>
        <args> x[81] x[83] </args>
        <args> x[119] x[123] </args>
        <args> x[19] x[18] </args>
        <args> x[81] x[82] </args>
        <args> x[119] x[122] </args>
        <args> x[81] x[79] </args>
        <args> x[119] x[121] </args>
        <args> x[17] x[18] </args>
        <args> x[80] x[78] </args>
        <args> x[19] x[20] </args>
        <args> x[16] x[15] </args>
        <args> x[118] x[123] </args>
        <args> x[17] x[15] </args>
        <args> x[118] x[122] </args>
        <args> x[70] x[71] </args>
        <args> x[118] x[121] </args>
        <args> x[120] x[123] </args>
        <args> x[120] x[122] </args>
        <args> x[80] x[83] </args>
        <args> x[120] x[121] </args>
        <args> x[16] x[20] </args>
        <args> x[19] x[15] </args>
        <args> x[80] x[82] </args>
      </group>
      <group>
        <extension>
          <list> %0 %1 </list>
          <supports> (0,0)(0,13)(13,0) </supports>
        </extension>
        <args> x[122] x[121] </args>
        <args> x[32] x[30] </args>
        <args> x[86] x[83] </args>
        <args> x[116] x[115] </args>
        <args> x[35] x[36] </args>
        <args> x[99] x[125] </args>
        <args> x[15] x[31] </args>
        <args> x[20] x[32] </args>
        <args> x[26] x[22] </args>
        <args> x[31] x[30] </args>
        <args> x[57] x[60] </args>
        <args> x[14] x[12] </args>
        <args> x[89] x[91] </args>
        <args> x[89] x[88] </args>
        <args> x[124] x[127] </args>
        <args> x[32] x[33] </args>
        <args> x[23] x[21] </args>
        <args> x[93] x[92] </args>
        <args> x[84] x[83] </args>
        <args> x[43] x[45] </args>
        <args> x[128] x[124] </args>
        <args> x[4] x[20] </args>
        <args> x[15] x[30] </args>
        <args> x[124] x[125] </args>
        <args> x[30] x[33] </args>
        <args> x[59] x[39] </args>
        <args> x[26] x[25] </args>
        <args> x[11] x[9] </args>
        <args> x[20] x[18] </args>
        <args> x[59] x[40] </args>
        <args> x[105] x[103] </args>
        <args> x[31] x[33] </args>
        <args> x[13] x[12] </args>
        <args> x[91] x[92] </args>
        <args> x[32] x[35] </args>
        <args> x[59] x[58] </args>
        <args> x[38] x[39] </args>
        <args> x[18] x[31] </args>
        <args> x[14] x[11] </args>
        <args> x[126] x[129] </args>
        <args> x[18] x[32] </args>
        <args> x[30] x[35] </args>
        <args> x[10] x[12] </args>
        <args> x[84] x[87] </args>
        <args> x[128] x[127] </args>
        <args> x[104] x[97] </args>
        <args> x[84] x[86] </args>
        <args> x[84] x[82] </args>
        <args> x[126] x[127] </args>
        <args> x[23] x[24] </args>
        <args> x[103] x[99] </args>
        <args> x[129] x[127] </args>
        <args> x[13] x[11] </args>
        <args> x[60] x[41] </args>
        <args> x[18] x[30] </args>
        <args> x[43] x[44] </args>
        <args> x[89] x[87] </args>
        <args> x[89] x[90] </args>
        <args> x[89] x[86] </args>
        <args> x[91] x[88] </args>
        <args> x[32] x[27] </args>
        <args> x[129] x[125] </args>
        <args> x[10] x[11] </args>
        <args> x[4] x[18] </args>
        <args> x[126] x[125] </args>
        <args> x[12] x[11] </args>
        <args> x[47] x[44] </args>
        <args> x[41] x[39] </args>
        <args> x[23] x[22] </args>
        <args> x[41] x[40] </args>
        <args> x[60] x[42] </args>
        <args> x[20] x[31] </args>
        <args> x[104] x[103] </args>
        <args> x[14] x[13] </args>
        <args> x[99] x[129] </args>
        <args> x[58] x[40] </args>
        <args> x[127] x[125] </args>
        <args> x[18] x[15] </args>
        <args> x[99] x[95] </args>
        <args> x[123] x[122] </args>
        <args> x[123] x[121] </args>
        <args> x[22] x[21] </args>
        <args> x[23] x[25] </args>
        <args> x[53] x[71] </args>
        <args> x[14] x[10] </args>
        <args> x[57] x[59] </args>
        <args> x[105] x[104] </args>
        <args> x[141] x[142] </args>
        <args> x[20] x[30] </args>
        <args> x[88] x[90] </args>
        <args> x[93] x[90] </args>
        <args> x[47] x[45] </args>
        <args> x[59] x[41] </args>
        <args> x[37] x[33] </args>
        <args> x[124] x[129] </args>
        <args> x[126] x[124] </args>
        <args> x[84] x[71] </args>
        <args> x[97] x[95] </args>
        <args> x[46] x[45] </args>
        <args> x[25] x[21] </args>
        <args> x[42] x[39] </args>
        <args> x[91] x[90] </args>
        <args> x[103] x[95] </args>
        <args> x[10] x[9] </args>
        <args> x[15] x[32] </args>
        <args> x[59] x[38] </args>
        <args> x[20] x[15] </args>
        <args> x[31] x[35] </args>
        <args> x[89] x[99] </args>
        <args> x[22] x[24] </args>
        <args> x[103] x[97] </args>
        <args> x[128] x[126] </args>
        <args> x[111] x[110] </args>
        <args> x[128] x[129] </args>
        <args> x[26] x[21] </args>
        <args> x[37] x[36] </args>
        <args> x[57] x[58] </args>
        <args> x[25] x[24] </args>
        <args> x[27] x[30] </args>
        <args> x[141] x[140] </args>
        <args> x[87] x[86] </args>
        <args> x[35] x[33] </args>
        <args> x[46] x[44] </args>
        <args> x[104] x[95] </args>
        <args> x[58] x[39] </args>
        <args> x[32] x[31] </args>
        <args> x[58] x[41] </args>
        <args> x[57] x[38] </args>
        <args> x[104] x[99] </args>
        <args> x[44] x[45] </args>
        <args> x[4] x[15] </args>
        <args> x[59] x[60] </args>
        <args> x[43] x[42] </args>
        <args> x[83] x[82] </args>
        <args> x[41] x[38] </args>
        <args> x[41] x[42] </args>
        <args> x[99] x[97] </args>
        <args> x[60] x[39] </args>
        <args> x[60] x[40] </args>
        <args> x[128] x[125] </args>
        <args> x[99] x[127] </args>
        <args> x[87] x[88] </args>
        <args> x[26] x[24] </args>
        <args> x[58] x[38] </args>
        <args> x[79] x[78] </args>
        <args> x[40] x[39] </args>
      </group>
      <group>
        <extension>
          <list> %0 %1 </list>
          <supports> (0,0)(0,1)(0,2)(0,3)(1,0)(1,2)(1,3)(2,0)(2,1)(2,3)(3,0)(3,1)(3,2) </supports>
        </extension>
        <args> x[2] x[0] </args>
        <args> x[51] x[49] </args>
        <args> x[133] x[131] </args>
        <args> x[74] x[76] </args>
        <args> x[108] x[113] </args>
        <args> x[48] x[49] </args>
        <args> x[112] x[113] </args>
        <args> x[100] x[98] </args>
        <args> x[136] x[137] </args>
        <args> x[69] x[64] </args>
        <args> x[64] x[67] </args>
        <args> x[133] x[135] </args>
        <args> x[69] x[67] </args>
        <args> x[65] x[69] </args>
        <args> x[96] x[94] </args>
        <args> x[65] x[64] </args>
        <args> x[109] x[107] </args>
        <args> x[52] x[51] </args>
        <args> x[65] x[68] </args>
        <args> x[19] x[16] </args>
        <args> x[109] x[108] </args>
        <args> x[112] x[109] </args>
        <args> x[54] x[49] </args>
        <args> x[132] x[135] </args>
        <args> x[51] x[50] </args>
        <args> x[56] x[54] </args>
        <args> x[50] x[49] </args>
        <args> x[132] x[133] </args>
        <args> x[102] x[100] </args>
        <args> x[120] x[119] </args>
        <args> x[98] x[94] </args>
        <args> x[75] x[76] </args>
        <args> x[117] x[113] </args>
        <args> x[132] x[134] </args>
        <args> x[133] x[130] </args>
        <args> x[52] x[50] </args>
        <args> x[65] x[67] </args>
        <args> x[138] x[137] </args>
        <args> x[108] x[107] </args>
        <args> x[112] x[107] </args>
        <args> x[54] x[55] </args>
        <args> x[132] x[131] </args>
        <args> x[112] x[117] </args>
        <args> x[81] x[80] </args>
        <args> x[114] x[112] </args>
        <args> x[56] x[55] </args>
        <args> x[52] x[48] </args>
        <args> x[132] x[130] </args>
        <args> x[75] x[74] </args>
        <args> x[109] x[113] </args>
        <args> x[54] x[51] </args>
        <args> x[101] x[100] </args>
        <args> x[68] x[67] </args>
        <args> x[112] x[108] </args>
        <args> x[120] x[118] </args>
        <args> x[135] x[134] </args>
        <args> x[100] x[96] </args>
        <args> x[131] x[134] </args>
        <args> x[119] x[118] </args>
        <args> x[114] x[113] </args>
        <args> x[8] x[7] </args>
        <args> x[52] x[49] </args>
        <args> x[69] x[68] </args>
        <args> x[2] x[3] </args>
        <args> x[19] x[17] </args>
        <args> x[100] x[94] </args>
        <args> x[51] x[48] </args>
        <args> x[102] x[101] </args>
        <args> x[108] x[106] </args>
        <args> x[133] x[134] </args>
        <args> x[109] x[106] </args>
        <args> x[101] x[96] </args>
        <args> x[135] x[130] </args>
        <args> x[114] x[117] </args>
        <args> x[98] x[96] </args>
        <args> x[131] x[130] </args>
        <args> x[17] x[16] </args>
        <args> x[114] x[109] </args>
        <args> x[2] x[1] </args>
        <args> x[54] x[50] </args>
        <args> x[74] x[73] </args>
        <args> x[107] x[106] </args>
        <args> x[75] x[73] </args>
        <args> x[139] x[137] </args>
        <args> x[114] x[108] </args>
      </group>
      <group>
        <extension>
          <list> %0 %1 </list>
          <supports> (0,0)(0,13)(1,0)(1,13)(2,0)(3,0)(3,13) </supports>
        </extension>
        <args> x[108] x[125] </args>
        <args> x[107] x[127] </args>
        <args> x[107] x[125] </args>
        <args> x[108] x[129] </args>
        <args> x[109] x[129] </args>
        <args> x[109] x[125] </args>
        <args> x[106] x[129] </args>
        <args> x[106] x[127] </args>
        <args> x[106] x[125] </args>
        <args> x[107] x[129] </args>
        <args> x[108] x[127] </args>
        <args> x[109] x[127] </args>
      </group>
      <group>
        <extension>
          <list> %0 %1 </list>
          <supports> (0,0)(0,1)(0,2)(0,3)(13,0)(13,1)(13,3) </supports>
        </extension>
        <args> x[122] x[101] </args>
        <args> x[123] x[100] </args>
        <args> x[59] x[69] </args>
        <args> x[59] x[67] </args>
        <args> x[99] x[117] </args>
        <args> x[57] x[69] </args>
        <args> x[57] x[64] </args>
        <args> x[57] x[67] </args>
        <args> x[58] x[69] </args>
        <args> x[57] x[68] </args>
        <args> x[58] x[67] </args>
        <args> x[58] x[68] </args>
        <args> x[123] x[101] </args>
        <args> x[122] x[100] </args>
        <args> x[123] x[102] </args>
        <args> x[122] x[102] </args>
        <args> x[59] x[68] </args>
      </group>
      <group>
        <extension>
          <list> %0 %1 </list>
          <supports> (0,0)(0,2)(2,0) </supports>
        </extension>
        <args> x[29] x[28] </args>
        <args> x[63] x[61] </args>
        <args> x[62] x[61] </args>
        <args> x[6] x[5] </args>
        <args> x[63] x[62] </args>
      </group>
      <group>
        <extension>
          <list> %0 %1 </list>
          <supports> (0,0)(0,1)(0,2)(0,3)(13,0)(13,2)(13,3) </supports>
        </extension>
        <args> x[93] x[101] </args>
        <args> x[93] x[102] </args>
        <args> x[91] x[101] </args>
        <args> x[91] x[102] </args>
        <args> x[93] x[100] </args>
        <args> x[91] x[100] </args>
      </group>
      <group>
        <extension>
          <list> %0 %1 </list>
          <supports> (0,0)(0,2)(1,0)(1,2)(2,0)(3,0)(3,2) </supports>
        </extension>
        <args> x[7] x[5] </args>
        <args> x[3] x[5] </args>
        <args> x[3] x[6] </args>
        <args> x[8] x[5] </args>
      </group>
      <group>
        <extension>
          <list> %0 %1 </list>
          <supports> (0,0)(0,1)(0,2)(0,3)(2,0)(2,1)(2,3) </supports>
        </extension>
        <args> x[6] x[8] </args>
        <args> x[6] x[7] </args>
      </group>
    </block>
    <block note="ternary constraints">
      <group>
        <extension>
          <list> %0 %1 %2 </list>
          <supports> (0,0,0)(0,0,1)(0,0,2)(0,0,3)(0,13,0)(0,13,1)(0,13,2)(0,13,3)(1,0,0)(1,0,1)(1,0,2)(1,0,3)(1,13,0)(1,13,1)(1,13,3)(2,0,0)(2,0,1)(2,0,2)(2,0,3)(2,13,0)(2,13,1)(2,13,2)(2,13,3)(3,0,0)(3,0,1)(3,0,2)(3,0,3)(3,13,0)(3,13,1)(3,13,2)(3,13,3) </supports>
        </extension>
        <args> x[136] x[122] x[135] </args>
        <args> x[138] x[122] x[134] </args>
        <args> x[136] x[122] x[134] </args>
        <args> x[138] x[122] x[135] </args>
        <args> x[64] x[45] x[55] </args>
        <args> x[136] x[123] x[134] </args>
        <args> x[138] x[123] x[135] </args>
        <args> x[136] x[123] x[135] </args>
        <args> x[138] x[123] x[134] </args>
      </group>
      <group>
        <extension>
          <list> %0 %1 %2 </list>
          <supports> (0,0,0)(0,0,1)(0,0,2)(0,0,3)(0,13,0)(0,13,1)(0,13,2)(0,13,3)(1,0,0)(1,0,1)(1,0,2)(1,0,3)(1,13,0)(1,13,1)(1,13,2)(1,13,3)(2,0,0)(2,0,1)(2,0,2)(2,0,3)(2,13,0)(2,13,2)(2,13,3)(3,0,0)(3,0,1)(3,0,2)(3,0,3)(3,13,0)(3,13,1)(3,13,2)(3,13,3) </supports>
        </extension>
        <args> x[70] x[60] x[73] </args>
        <args> x[70] x[60] x[75] </args>
        <args> x[70] x[60] x[74] </args>
      </group>
      <group>
        <extension>
          <list> %0 %1 %2 </list>
          <supports> (0,0,0)(0,0,1)(0,0,2)(0,0,3)(0,13,0)(0,13,1)(0,13,2)(0,13,3)(13,0,0)(13,0,1)(13,0,2)(13,0,3)(13,13,0)(13,13,1)(13,13,3) </supports>
        </extension>
        <args> x[71] x[82] x[73] </args>
        <args> x[84] x[71] x[73] </args>
        <args> x[71] x[83] x[75] </args>
        <args> x[71] x[83] x[73] </args>
        <args> x[84] x[71] x[74] </args>
        <args> x[71] x[82] x[75] </args>
        <args> x[71] x[82] x[74] </args>
        <args> x[84] x[71] x[75] </args>
        <args> x[71] x[83] x[74] </args>
      </group>
      <group>
        <extension>
          <list> %0 %1 %2 </list>
          <supports> (0,0,0)(0,0,1)(0,0,2)(0,0,3)(0,1,0)(0,1,1)(0,1,2)(0,1,3)(0,2,0)(0,2,1)(0,2,2)(0,2,3)(0,3,0)(0,3,1)(0,3,2)(0,3,3)(13,0,0)(13,0,1)(13,0,2)(13,0,3)(13,1,0)(13,1,1)(13,1,3)(13,2,0)(13,2,1)(13,2,2)(13,2,3)(13,3,0)(13,3,1)(13,3,2)(13,3,3) </supports>
        </extension>
        <args> x[44] x[64] x[55] </args>
        <args> x[71] x[85] x[76] </args>
        <args> x[47] x[64] x[55] </args>
        <args> x[47] x[69] x[55] </args>
        <args> x[71] x[85] x[74] </args>
        <args> x[123] x[137] x[134] </args>
        <args> x[47] x[67] x[55] </args>
        <args> x[46] x[64] x[55] </args>
        <args> x[71] x[85] x[75] </args>
        <args> x[71] x[85] x[73] </args>
        <args> x[47] x[68] x[55] </args>
        <args> x[122] x[137] x[134] </args>
      </group>
      <group>
        <extension>
          <list> %0 %1 %2 </list>
          <supports> (0,0,0)(0,0,1)(0,0,2)(0,0,3)(0,1,0)(0,1,1)(0,1,2)(0,1,3)(0,2,0)(0,2,1)(0,2,2)(0,2,3)(0,3,0)(0,3,1)(0,3,2)(0,3,3)(13,0,0)(13,0,1)(13,0,2)(13,0,3)(13,1,0)(13,1,1)(13,1,2)(13,1,3)(13,2,0)(13,2,2)(13,2,3)(13,3,0)(13,3,1)(13,3,2)(13,3,3) </supports>
        </extension>
        <args> x[46] x[54] x[64] </args>
        <args> x[46] x[56] x[64] </args>
        <args> x[123] x[135] x[137] </args>
        <args> x[122] x[135] x[137] </args>
        <args> x[47] x[56] x[68] </args>
        <args> x[44] x[54] x[64] </args>
        <args> x[44] x[56] x[64] </args>
        <args> x[47] x[56] x[69] </args>
        <args> x[47] x[56] x[64] </args>
        <args> x[47] x[56] x[67] </args>
      </group>
      <group>
        <extension>
          <list> %0 %1 %2 </list>
          <supports> (0,0,0)(0,0,2)(0,1,0)(0,1,2)(0,2,0)(0,2,2)(0,3,0)(0,3,2)(13,0,0)(13,0,2)(13,1,0)(13,2,0)(13,2,2)(13,3,0)(13,3,2) </supports>
        </extension>
        <args> x[53] x[70] x[61] </args>
        <args> x[53] x[70] x[62] </args>
      </group>
      <group>
        <extension>
          <list> %0 %1 %2 </list>
          <supports> (0,0,0)(0,0,1)(0,0,2)(0,0,3)(0,13,0)(0,13,1)(0,13,2)(0,13,3)(2,0,0)(2,0,1)(2,0,2)(2,0,3)(2,13,0)(2,13,1)(2,13,2) </supports>
        </extension>
        <args> x[63] x[71] x[50] </args>
        <args> x[63] x[71] x[51] </args>
        <args> x[63] x[71] x[49] </args>
        <args> x[63] x[71] x[52] </args>
      </group>
      <group>
        <extension>
          <list> %0 %1 %2 </list>
          <supports> (0,0,0)(0,0,13)(0,13,0)(0,13,13)(1,0,0)(1,0,13)(1,13,0)(1,13,13)(2,0,0)(2,0,13)(2,13,0)(3,0,0)(3,0,13)(3,13,0)(3,13,13) </supports>
        </extension>
        <args> x[70] x[60] x[72] </args>
        <args> x[48] x[60] x[39] </args>
        <args> x[48] x[60] x[40] </args>
        <args> x[48] x[60] x[41] </args>
      </group>
      <extension>
        <list> x[53] x[63] x[70] </list>
        <supports> (0,0,0)(0,0,1)(0,0,2)(0,0,3)(0,2,0)(0,2,1)(0,2,2)(0,2,3)(13,0,0)(13,0,1)(13,0,2)(13,0,3)(13,2,0)(13,2,2)(13,2,3) </supports>
      </extension>
      <group>
        <extension>
          <list> %0 %1 %2 </list>
          <supports> (0,0,0)(0,0,1)(0,0,2)(0,0,3)(0,1,0)(0,1,1)(0,1,2)(0,1,3)(0,2,0)(0,2,1)(0,2,2)(0,2,3)(0,3,0)(0,3,1)(0,3,2)(0,3,3)(1,0,0)(1,0,1)(1,0,2)(1,0,3)(1,1,0)(1,1,1)(1,1,2)(1,1,3)(1,2,0)(1,2,1)(1,2,2)(1,2,3)(1,3,0)(1,3,1)(1,3,2)(1,3,3)(2,0,0)(2,0,1)(2,0,2)(2,0,3)(2,1,0)(2,1,1)(2,1,2)(2,1,3)(2,2,0)(2,2,1)(2,2,2)(2,2,3)(2,3,0)(2,3,2)(2,3,3)(3,0,0)(3,0,1)(3,0,2)(3,0,3)(3,1,0)(3,1,1)(3,1,2)(3,1,3)(3,2,0)(3,2,1)(3,2,2)(3,2,3)(3,3,0)(3,3,1)(3,3,2)(3,3,3) </supports>
        </extension>
        <args> x[120] x[102] x[134] </args>
        <args> x[120] x[100] x[134] </args>
        <args> x[119] x[100] x[134] </args>
        <args> x[118] x[102] x[134] </args>
        <args> x[120] x[101] x[134] </args>
        <args> x[118] x[100] x[134] </args>
        <args> x[119] x[102] x[134] </args>
        <args> x[118] x[101] x[134] </args>
        <args> x[119] x[101] x[134] </args>
      </group>
      <group>
        <extension>
          <list> %0 %1 %2 </list>
          <supports> (0,0,0)(0,0,1)(0,0,2)(0,0,3)(0,1,0)(0,1,1)(0,1,2)(0,1,3)(0,2,0)(0,2,1)(0,2,2)(0,2,3)(0,3,0)(0,3,1)(0,3,2)(0,3,3)(1,0,0)(1,0,1)(1,0,2)(1,0,3)(1,1,0)(1,1,1)(1,1,2)(1,1,3)(1,2,0)(1,2,1)(1,2,2)(1,2,3)(1,3,0)(1,3,1)(1,3,2)(1,3,3)(2,0,0)(2,0,1)(2,0,2)(2,0,3)(2,1,0)(2,1,1)(2,1,2)(2,2,0)(2,2,1)(2,2,2)(2,2,3)(2,3,0)(2,3,1)(2,3,2)(2,3,3)(3,0,0)(3,0,1)(3,0,2)(3,0,3)(3,1,0)(3,1,1)(3,1,2)(3,1,3)(3,2,0)(3,2,1)(3,2,2)(3,2,3)(3,3,0)(3,3,1)(3,3,2)(3,3,3) </supports>
        </extension>
        <args> x[118] x[135] x[100] </args>
        <args> x[120] x[135] x[101] </args>
        <args> x[119] x[135] x[100] </args>
        <args> x[120] x[135] x[102] </args>
        <args> x[118] x[135] x[101] </args>
        <args> x[118] x[135] x[102] </args>
        <args> x[119] x[135] x[101] </args>
        <args> x[119] x[135] x[102] </args>
        <args> x[120] x[135] x[100] </args>
      </group>
      <group>
        <extension>
          <list> %0 %1 %2 </list>
          <supports> (0,0,0)(0,0,2)(0,1,0)(0,1,2)(0,2,0)(0,2,2)(0,3,0)(0,3,2)(13,0,0)(13,0,2)(13,1,0)(13,1,2)(13,2,0)(13,2,2)(13,3,0) </supports>
        </extension>
        <args> x[71] x[51] x[61] </args>
        <args> x[71] x[49] x[61] </args>
        <args> x[71] x[52] x[61] </args>
        <args> x[71] x[50] x[62] </args>
        <args> x[71] x[51] x[62] </args>
        <args> x[71] x[49] x[62] </args>
        <args> x[71] x[52] x[62] </args>
        <args> x[71] x[50] x[61] </args>
      </group>
      <group>
        <extension>
          <list> %0 %1 %2 </list>
          <supports> (0,0,0)(0,0,1)(0,0,2)(0,0,3)(0,1,0)(0,1,1)(0,1,2)(0,1,3)(0,2,0)(0,2,1)(0,2,2)(0,2,3)(0,3,0)(0,3,1)(0,3,2)(0,3,3)(13,0,0)(13,0,1)(13,0,2)(13,0,3)(13,1,0)(13,1,1)(13,1,2)(13,1,3)(13,2,0)(13,2,1)(13,2,2)(13,2,3)(13,3,0)(13,3,1)(13,3,3) </supports>
        </extension>
        <args> x[84] x[70] x[75] </args>
        <args> x[84] x[70] x[74] </args>
        <args> x[84] x[70] x[73] </args>
        <args> x[84] x[70] x[76] </args>
      </group>
      <group>
        <extension>
          <list> %0 %1 %2 </list>
          <supports> (0,0,0)(0,0,13)(0,1,0)(0,1,13)(0,2,0)(0,2,13)(0,3,0)(0,3,13)(1,0,0)(1,0,13)(1,1,0)(1,1,13)(1,2,0)(1,2,13)(1,3,0)(1,3,13)(2,0,0)(2,0,13)(2,1,0)(2,2,0)(2,2,13)(2,3,0)(2,3,13)(3,0,0)(3,0,13)(3,1,0)(3,1,13)(3,2,0)(3,2,13)(3,3,0)(3,3,13) </supports>
        </extension>
        <args> x[56] x[64] x[45] </args>
        <args> x[54] x[64] x[45] </args>
      </group>
    </block>
    <group>
      <extension>
        <list> %0 %1 </list>
        <supports> (0,1)(0,2)(0,3)(1,0) </supports>
      </extension>
      <args> y[0] x[0] </args>
      <args> y[1] x[1] </args>
      <args> y[2] x[2] </args>
      <args> y[3] x[3] </args>
      <args> y[7] x[7] </args>
      <args> y[8] x[8] </args>
      <args> y[16] x[16] </args>
      <args> y[17] x[17] </args>
      <args> y[19] x[19] </args>
      <args> y[34] x[34] </args>
      <args> y[48] x[48] </args>
      <args> y[49] x[49] </args>
      <args> y[50] x[50] </args>
      <args> y[51] x[51] </args>
      <args> y[52] x[52] </args>
      <args> y[54] x[54] </args>
      <args> y[55] x[55] </args>
      <args> y[56] x[56] </args>
      <args> y[64] x[64] </args>
      <args> y[65] x[65] </args>
      <args> y[67] x[67] </args>
      <args> y[68] x[68] </args>
      <args> y[69] x[69] </args>
      <args> y[70] x[70] </args>
      <args> y[73] x[73] </args>
      <args> y[74] x[74] </args>
      <args> y[75] x[75] </args>
      <args> y[76] x[76] </args>
      <args> y[80] x[80] </args>
      <args> y[81] x[81] </args>
      <args> y[85] x[85] </args>
      <args> y[94] x[94] </args>
      <args> y[96] x[96] </args>
      <args> y[98] x[98] </args>
      <args> y[100] x[100] </args>
      <args> y[101] x[101] </args>
      <args> y[102] x[102] </args>
      <args> y[106] x[106] </args>
      <args> y[107] x[107] </args>
      <args> y[108] x[108] </args>
      <args> y[109] x[109] </args>
      <args> y[112] x[112] </args>
      <args> y[113] x[113] </args>
      <args> y[114] x[114] </args>
      <args> y[117] x[117] </args>
      <args> y[118] x[118] </args>
      <args> y[119] x[119] </args>
      <args> y[120] x[120] </args>
      <args> y[130] x[130] </args>
      <args> y[131] x[131] </args>
      <args> y[132] x[132] </args>
      <args> y[133] x[133] </args>
      <args> y[134] x[134] </args>
      <args> y[135] x[135] </args>
      <args> y[136] x[136] </args>
      <args> y[137] x[137] </args>
      <args> y[138] x[138] </args>
      <args> y[139] x[139] </args>
    </group>
    <group>
      <extension>
        <list> %0 %1 </list>
        <supports> (0,13)(1,0) </supports>
      </extension>
      <args> y[4] x[4] </args>
      <args> y[9] x[9] </args>
      <args> y[10] x[10] </args>
      <args> y[11] x[11] </args>
      <args> y[12] x[12] </args>
      <args> y[13] x[13] </args>
      <args> y[14] x[14] </args>
      <args> y[15] x[15] </args>
      <args> y[18] x[18] </args>
      <args> y[20] x[20] </args>
      <args> y[21] x[21] </args>
      <args> y[22] x[22] </args>
      <args> y[23] x[23] </args>
      <args> y[24] x[24] </args>
      <args> y[25] x[25] </args>
      <args> y[26] x[26] </args>
      <args> y[27] x[27] </args>
      <args> y[30] x[30] </args>
      <args> y[31] x[31] </args>
      <args> y[32] x[32] </args>
      <args> y[33] x[33] </args>
      <args> y[35] x[35] </args>
      <args> y[36] x[36] </args>
      <args> y[37] x[37] </args>
      <args> y[38] x[38] </args>
      <args> y[39] x[39] </args>
      <args> y[40] x[40] </args>
      <args> y[41] x[41] </args>
      <args> y[42] x[42] </args>
      <args> y[43] x[43] </args>
      <args> y[44] x[44] </args>
      <args> y[45] x[45] </args>
      <args> y[46] x[46] </args>
      <args> y[47] x[47] </args>
      <args> y[53] x[53] </args>
      <args> y[57] x[57] </args>
      <args> y[58] x[58] </args>
      <args> y[59] x[59] </args>
      <args> y[60] x[60] </args>
      <args> y[66] x[66] </args>
      <args> y[71] x[71] </args>
      <args> y[72] x[72] </args>
      <args> y[77] x[77] </args>
      <args> y[78] x[78] </args>
      <args> y[79] x[79] </args>
      <args> y[82] x[82] </args>
      <args> y[83] x[83] </args>
      <args> y[84] x[84] </args>
      <args> y[86] x[86] </args>
      <args> y[87] x[87] </args>
      <args> y[88] x[88] </args>
      <args> y[89] x[89] </args>
      <args> y[90] x[90] </args>
      <args> y[91] x[91] </args>
      <args> y[92] x[92] </args>
      <args> y[93] x[93] </args>
      <args> y[95] x[95] </args>
      <args> y[97] x[97] </args>
      <args> y[99] x[99] </args>
      <args> y[103] x[103] </args>
      <args> y[104] x[104] </args>
      <args> y[105] x[105] </args>
      <args> y[110] x[110] </args>
      <args> y[111] x[111] </args>
      <args> y[115] x[115] </args>
      <args> y[116] x[116] </args>
      <args> y[121] x[121] </args>
      <args> y[122] x[122] </args>
      <args> y[123] x[123] </args>
      <args> y[124] x[124] </args>
      <args> y[125] x[125] </args>
      <args> y[126] x[126] </args>
      <args> y[127] x[127] </args>
      <args> y[128] x[128] </args>
      <args> y[129] x[129] </args>
      <args> y[140] x[140] </args>
      <args> y[141] x[141] </args>
      <args> y[142] x[142] </args>
    </group>
    <group>
      <extension>
        <list> %0 %1 </list>
        <supports> (0,2)(1,0) </supports>
      </extension>
      <args> y[5] x[5] </args>
      <args> y[6] x[6] </args>
      <args> y[28] x[28] </args>
      <args> y[29] x[29] </args>
      <args> y[61] x[61] </args>
      <args> y[62] x[62] </args>
      <args> y[63] x[63] </args>
    </group>
  </constraints>
  <objectives>
    <minimize type="sum">
      <list> y[] </list>
      <coeffs> 1x4 2 1x4 2x7 1 1 2 1 2x8 1 1 2x4 1 2x13 1x5 2 1x3 2x4 1000x3 1 1 2 1x4 2 2 1x4 2x3 1 1 2x3 1 2x8 1000x4 5 5 1x3 1000x3 1x4 1000 1000 1x3 1000 1000 1 1000x6 5 2 5 2 5 2 1x3 5 1x6 2x3 </coeffs>
    </minimize>
  </objectives>
</instance>
